WARNING: for repeatability, setting FPU to use double precision
Reading from standard input... Use '--help' for help.
============================[ Problem Statistics ]=============================
|                                                                             |
|  Number of variables:          4096                                         |
|  Number of clauses:           29327                                         |
|  Parse time:                   0.01 s                                       |
|  Eliminated clauses:           0.01 Mb                                      |
|  Simplification time:          0.01 s                                       |
|                                                                             |
LBD Based Clause Deletion : 1
Rapid Deletion : 1
Almost Conflict : 1
Anti Exploration : 1
============================[ Search Statistics ]==============================
| Conflicts |          ORIGINAL         |          LEARNT          | Progress |
|           |    Vars  Clauses Literals |    Limit  Clauses Lit/Cl |          |
===============================================================================
|       100 |     674     3848    11663 |     2000      100     31 | 65.112 % |
===============================================================================
restarts              : 3
conflicts             : 204            (12147 /sec)
decisions             : 646            (0.00 % random) (38466 /sec)
propagations          : 13362          (795641 /sec)
conflict literals     : 6694           (7.96 % deleted)
actual reward         : 0.209123
Memory used           : 9.00 MB
CPU time              : 0.016794 s

SATISFIABLE
